s td 215 35 338
b 1 2 41 97
b 2 5 29 208
b 3 7 32 305
b 4 9 37 251
b 5 10 140 158
b 6 13 260 295
b 7 19 305 327
b 8 23 83 95
b 9 18 25 72
b 10 26 29 279
b 11 27 29 317
b 12 36 163 306
b 13 38 44 228
b 14 29 43 232
b 15 17 45 280
b 16 53 80 153
b 17 56 57 305
b 18 6 59 189
b 19 31 62 70
b 20 64 140 242
b 21 68 103 214
b 22 73 97 293
b 23 20 78 260
b 24 72 84 212
b 25 82 86 149
b 26 88 118 171
b 27 89 169 280
b 28 90 171 303
b 29 94 204 283
b 30 96 126 142
b 31 102 302 306
b 32 107 147 264
b 33 113 260 309
b 34 70 114 221
b 35 70 121 129
b 36 133 138 260
b 37 37 135 159
b 38 137 146 215
b 39 6 139 164
b 40 112 144 180
b 41 147 150 275
b 42 97 154 228
b 43 147 157 291
b 44 97 162 266
b 45 172 280 299
b 46 28 146 175
b 47 178 182 273
b 48 34 74 187
b 49 140 192 244
b 50 195 249 261
b 51 146 205 262
b 52 34 207 337
b 53 6 202 209
b 54 109 211 283
b 55 100 117 213
b 56 217 283 297
b 57 55 219 306
b 58 72 222 328
b 59 171 226 312
b 60 231 269 305
b 61 176 183 233
b 62 98 235 280
b 63 1 146 239
b 64 37 167 246
b 65 80 247 319
b 66 37 248 325
b 67 93 140 252
b 68 274 283 330
b 69 108 285 333
b 70 69 289 306
b 71 6 259 298
b 72 70 301 334
b 73 52 151 307
b 74 29 282 308
b 75 271 310 322
b 76 141 280 311
b 77 48 52 313
b 78 30 171 315
b 79 147 278 332
b 80 70 160 338
b 81 17 103 280
b 82 28 146 278
b 83 30 171 293
b 84 48 52 184
b 85 52 151 184
b 86 49 55 272 306
b 87 56 278 305
b 88 66 174 305 327
b 89 18 69 306
b 90 34 74 101
b 91 34 101 337
b 92 82 127 149
b 93 93 140 295
b 94 20 98 280
b 95 100 117 166
b 96 118 171 251
b 97 70 121 261
b 98 18 80 153
b 99 18 80 319
b 100 3 140 158
b 101 70 160 303
b 102 37 51 167
b 103 105 176 183
b 104 6 202 254
b 105 44 97 228
b 106 29 32 232
b 107 29 32 305 327
b 108 6 259 262
b 109 6 146 262
b 110 97 223 266
b 111 29 95 282
b 112 134 147 291
b 113 97 171 293
b 114 140 260 295
b 115 280 299 302
b 116 55 280 302 306
b 117 18 260 309
b 118 109 179 283 324
b 119 251 283 330
b 120 70 204 334
b 121 70 109 204 283
b 122 20 152 260 280
b 123 31 37 70 197
b 124 47 80 105 327
b 125 3 4 12 14 16 33 34 40 75 85 100 115 116 130 140 143 155 161 168 173 177 227 230 240 255 260 263 268 271 277 280 281 286 306 335
b 126 3 4 12 14 33 34 40 75 85 100 115 116 130 140 143 155 161 168 173 177 188 227 230 240 255 260 263 268 271 277 280 281 286 306 335
b 127 3 4 12 14 34 40 75 85 100 115 116 130 140 143 161 168 173 177 188 214 227 230 240 255 260 263 268 271 277 280 281 286 306 335
b 128 3 4 12 14 34 40 75 85 100 101 115 116 130 140 143 161 168 173 177 214 227 230 240 255 260 263 271 277 280 281 286 306 335
b 129 3 4 12 14 34 40 75 85 100 101 115 116 124 130 140 161 168 173 177 214 227 230 240 255 260 271 277 280 281 286 306 335
b 130 3 4 12 14 34 40 85 100 115 116 124 130 140 161 168 173 177 214 224 227 230 240 255 260 271 277 280 286 306
b 131 3 14 34 40 72 85 100 115 116 124 130 140 161 173 177 214 224 227 230 240 255 260 271 277 280 286 306
b 132 18 72 260 277 306
b 133 18 72 277 305
b 134 72 77 277 305
b 135 14 34 40 72 100 112 116 130 140 173 177 214 224 227 240 255 260 271 280 306
b 136 34 72 100 112 125 130 140 177 214 255 260 271 280 306
b 137 72 141 280 286
b 138 34 100 198 214 240 280 306
b 139 103 198 214 240 280 306
b 140 55 103 198 280 306
b 141 3 4 12 14 16 33 34 40 75 85 100 115 116 130 140 143 161 168 173 177 181 227 230 240 255 260 263 268 271 277 280 281 286 306 335
b 142 3 4 12 14 16 33 34 40 75 85 100 115 116 120 130 140 143 161 168 173 177 181 227 230 240 255 260 263 268 277 280 281 286 306 335
b 143 3 4 12 14 16 22 33 34 40 75 85 100 116 120 130 140 143 161 168 173 177 181 227 230 240 255 260 263 268 277 280 286 306 335
b 144 3 4 12 14 22 33 34 40 75 85 100 116 120 140 143 152 161 168 173 177 181 230 240 255 260 263 268 277 280 286 306 335
b 145 4 12 14 22 33 34 40 75 76 85 100 116 120 140 143 152 161 168 173 177 181 230 240 255 263 268 277 286 306 335
b 146 4 12 14 22 34 40 60 75 76 85 100 116 120 140 143 152 161 168 173 177 181 240 255 263 268 277 286 306 335
b 147 4 12 14 34 40 60 75 76 81 85 100 116 120 140 143 152 161 168 173 181 240 263 268 277 286 306 335
b 148 12 14 40 75 76 81 85 100 140 143 161 181 229 240 263 268 277 306 335
b 149 12 14 40 76 81 85 100 140 143 161 229 240 250 263 268 277 306 335
b 150 3 12 33 85 100 115 120 130 143 173 240 243 281
b 151 3 4 40 85 168 177 181 194 255 263 271 277 280 281 306
b 152 3 12 16 115 140 155 161 191 271
b 153 1 29 97 146 267
b 154 6 11 29 35 50 61 79 80 83 87 97 110 123 126 132 134 146 148 165 183 190 199 216 253 254 267 270 287 288 290 294 305 320 323 326
b 155 6 11 29 35 50 61 79 80 83 87 110 123 126 131 132 134 146 148 165 183 190 199 216 253 254 267 270 287 288 290 294 305 320 323 326
b 156 6 11 29 35 39 50 61 79 83 87 110 123 126 131 132 134 148 165 183 190 199 216 253 254 267 270 287 288 290 294 305 320 323 326
b 157 6 11 35 39 50 61 63 79 83 87 110 123 126 131 132 134 148 165 183 190 199 216 253 254 267 270 287 288 290 294 305 320 323 326
b 158 6 11 35 39 50 61 63 79 83 87 110 126 131 132 134 148 165 183 190 216 253 254 267 270 287 288 290 294 305 316 320 323 326
b 159 6 8 11 35 39 50 61 63 79 83 87 110 126 131 132 134 148 165 183 190 216 253 254 267 270 287 288 290 294 316 323 326
b 160 6 8 11 35 39 50 61 63 79 83 110 126 131 132 134 148 183 216 220 254 267 270 287 288 290 294 316 323 326
b 161 6 8 11 21 35 39 50 61 63 79 83 110 126 131 132 134 148 183 216 220 254 267 270 287 290 294 316 326
b 162 6 8 11 21 35 39 50 61 63 79 83 110 126 131 132 134 148 183 216 254 270 284 287 290 294 326
b 163 6 8 11 21 39 61 79 110 119 126 134 254 270 284 290 294
b 164 8 11 21 39 61 79 119 134 136 270 290 294
b 165 6 35 50 61 63 79 83 110 126 132 216 270 284 287 292
b 166 6 63 123 134 183 186 216 253 290
b 167 11 24 29 35 39 50 61 123 126 132 134 190 253 254 305
b 168 15 50 80 123 131 132 148 190 199 216 267 288 290 305 326
b 169 6 11 29 35 44 50 61 79 80 83 87 97 110 123 126 132 134 146 148 165 183 190 199 216 253 254 270 287 288 290 294 305 320 323 326
b 170 6 11 29 35 44 50 61 79 80 83 87 110 123 126 132 134 146 148 165 183 190 199 216 234 253 254 270 287 288 290 294 305 320 326
b 171 6 11 29 35 44 50 61 79 80 83 87 110 126 132 134 146 148 165 183 190 199 216 234 253 254 270 287 288 290 305 320 326 329
b 172 6 11 18 29 35 44 50 61 79 80 83 87 110 126 132 134 146 165 183 190 199 253 254 270 287 288 290 305 320 326 329
b 173 6 11 18 29 44 50 61 79 80 83 87 110 126 132 134 146 165 183 190 199 253 254 265 270 288 290 305 320 329
b 174 6 29 44 50 54 61 79 80 83 87 110 126 134 146 183 190 253 254 265 270 305 320 329
b 175 6 29 50 54 61 87 110 126 134 146 183 190 253 254 265 270 278 305 320 329
b 176 6 29 50 54 61 87 110 126 134 147 183 190 253 254 265 270 278 320 329
b 177 29 147 318 329
b 178 29 80 83 95 183 288 305
b 179 29 80 95 183 305 327
b 180 80 105 183 327
b 181 1 29 97 279
b 182 42 46 51 65 70 91 92 97 99 111 122 128 145 149 171 178 185 193 200 201 210 218 223 225 236 256 257 258 276 279 283 296 304 321 336
b 183 42 46 51 65 70 91 92 97 99 111 122 128 145 149 171 178 185 193 200 201 210 218 223 225 236 237 256 257 258 276 283 296 304 321 336
b 184 42 46 51 52 65 70 91 92 97 99 111 122 128 145 149 171 178 185 193 200 201 210 218 223 225 237 256 257 258 276 283 304 321 336
b 185 42 46 51 52 65 70 91 92 97 99 111 122 128 145 149 171 178 185 193 201 210 218 223 225 237 256 257 258 276 283 304 314 321 336
b 186 42 46 51 52 65 70 91 92 97 99 111 122 128 145 149 170 171 178 185 193 201 218 223 225 237 256 257 258 276 283 304 314 321 336
b 187 42 51 52 65 70 91 92 97 111 122 128 145 149 170 171 178 185 193 201 218 223 225 237 249 256 257 258 276 283 304 314 321 336
b 188 42 51 52 65 70 91 92 97 108 111 122 128 145 149 170 171 178 185 193 218 223 225 237 249 256 258 276 283 304 314 321 336
b 189 42 51 52 58 65 70 91 92 97 108 111 122 128 145 149 171 178 185 193 218 223 225 237 249 256 258 276 283 314 321 336
b 190 42 51 52 58 65 70 91 92 97 122 128 145 149 171 178 184 185 193 218 223 225 237 249 256 258 276 283 314 321 336
b 191 42 51 58 65 70 91 92 97 128 145 149 171 178 184 185 193 223 225 237 256 258 276 283 300 314 321
b 192 37 51 58 70 91 97 128 149 171 178 185 193 223 225 237 256 283 300 314 321
b 193 37 70 197 314
b 194 37 171 251 283
b 195 42 52 70 109 149 249 283
b 196 52 109 149 206
b 197 42 70 109 249 261 283
b 198 42 46 51 65 70 91 92 97 99 111 122 128 145 149 156 171 185 193 200 201 210 218 223 225 236 256 257 258 276 279 283 296 304 321 336
b 199 42 46 51 65 70 91 92 97 99 104 111 122 128 145 149 156 171 185 193 200 201 210 223 225 236 257 258 276 279 283 296 304 321 336
b 200 42 46 51 65 70 91 92 99 104 111 122 145 149 156 171 185 196 200 201 210 223 225 236 258 276 279 283 296 304 321 336
b 201 42 46 51 65 70 71 92 99 104 111 122 145 149 156 171 185 196 200 201 210 223 225 236 258 276 279 296 304 321 336
b 202 42 46 51 65 70 71 92 99 104 111 122 145 149 156 171 185 196 200 201 210 225 236 241 258 276 279 296 321 336
b 203 51 65 71 99 111 122 145 149 156 185 196 201 236 238 241 279 296 321
b 204 51 65 67 111 145 185 201 236 238 279 296 321
b 205 42 46 51 91 92 97 122 145 149 156 193 210 218 245 257 283 296 321 336
b 206 42 51 91 92 97 122 149 156 193 203 210 218 245 257 283 296 321 336
b 207 46 51 65 70 91 128 178 218 223 236 256 276 283 321 331
b 208 72 106 141 286
b 209 52 127 149 206
b 210 34 100 166 198
b 211 95 174 305 327
b 212 109 179 261 283
b 213 55 103 272 306
b 214 70 171 196 303
b 215 29 147 317 318
1 153
2 153
3 107
4 194
5 100
6 114
7 179
8 178
9 132
10 181
11 215
12 125
13 105
14 106
15 81
16 98
17 87
18 154
19 123
20 125
21 139
22 113
23 122
24 131
25 92
26 96
27 125
28 214
29 121
30 154
31 116
32 176
33 117
34 182
35 97
36 125
37 192
38 153
39 154
40 135
41 176
42 105
43 112
44 110
45 115
46 82
47 182
48 90
49 125
50 197
51 109
52 91
53 104
54 195
55 95
56 182
57 140
58 131
59 182
60 154
61 103
62 94
63 153
64 102
65 99
66 192
67 93
68 119
69 188
70 89
71 108
72 120
73 85
74 111
75 125
76 137
77 84
78 83
79 176
80 101
81 139
82 175
83 113
84 190
85 190
86 213
87 175
88 211
89 132
90 128
91 128
92 209
93 114
94 122
95 210
96 194
97 197
98 172
99 172
100 125
101 214
102 192
103 180
104 154
105 169
106 107
107 179
108 109
109 154
110 182
111 178
112 176
113 182
114 125
115 116
116 140
117 132
118 212
119 194
120 121
121 195
122 144
123 193
124 180
125 126
125 141
125 152
126 127
127 128
127 138
128 129
129 130
130 131
131 132
131 135
131 137
132 133
133 172
133 134
135 136
137 208
138 210
138 139
139 140
140 213
141 142
141 151
142 143
142 150
143 144
144 145
145 146
146 147
147 148
148 149
153 154
153 181
154 155
154 169
154 178
155 156
155 168
156 157
156 167
157 158
157 166
158 159
159 160
160 161
161 162
162 163
162 165
163 164
169 170
170 171
171 172
172 173
173 174
174 175
175 176
176 177
177 215
178 179
179 211
179 180
181 182
182 183
182 198
182 207
183 184
184 185
185 186
186 187
187 188
187 195
188 189
189 190
190 191
191 192
192 193
192 194
195 196
195 197
196 209
197 212
198 199
198 205
199 200
200 214
200 201
201 202
202 203
203 204
205 206
